(set-info :source |printed by MathSAT|)
(declare-fun |main::local_14@3| () (_ BitVec 32))
(declare-fun |main::local_14@4| () (_ BitVec 32))
(declare-fun |main::local_14@5| () (_ BitVec 32))
(declare-fun |main::local_14@6| () (_ BitVec 32))
(declare-fun |main::local_14@7| () (_ BitVec 32))
(declare-fun |main::local_14@8| () (_ BitVec 32))
(declare-fun |main::local_14@9| () (_ BitVec 32))
(assert (let ((.def_13 (bvslt |main::local_14@3| (_ bv6 32))))(let ((.def_11 (= |main::local_14@3| (_ bv0 32))))(let ((.def_607 (and .def_11 .def_13)))(let ((.def_59 (bvadd (_ bv1 32) |main::local_14@3|)))(let ((.def_61 (= .def_59 |main::local_14@4|)))(let ((.def_608 (and .def_61 .def_607)))(let ((.def_71 (bvslt |main::local_14@4| (_ bv6 32))))(let ((.def_609 (and .def_71 .def_608)))(let ((.def_117 (bvadd (_ bv1 32) |main::local_14@4|)))(let ((.def_119 (= .def_117 |main::local_14@5|)))(let ((.def_610 (and .def_119 .def_609)))(let ((.def_139 (bvslt |main::local_14@5| (_ bv6 32))))(let ((.def_611 (and .def_139 .def_610)))(let ((.def_148 (bvadd (_ bv1 32) |main::local_14@5|)))(let ((.def_150 (= .def_148 |main::local_14@6|)))(let ((.def_612 (and .def_150 .def_611)))(let ((.def_183 (bvslt |main::local_14@6| (_ bv6 32))))(let ((.def_613 (and .def_183 .def_612)))(let ((.def_277 (bvadd (_ bv1 32) |main::local_14@6|)))(let ((.def_279 (= .def_277 |main::local_14@7|)))(let ((.def_614 (and .def_279 .def_613)))(let ((.def_308 (bvslt |main::local_14@7| (_ bv6 32))))(let ((.def_615 (and .def_308 .def_614)))(let ((.def_317 (bvadd (_ bv1 32) |main::local_14@7|)))(let ((.def_319 (= .def_317 |main::local_14@8|)))(let ((.def_616 (and .def_319 .def_615)))(let ((.def_367 (bvslt |main::local_14@8| (_ bv6 32))))(let ((.def_617 (and .def_367 .def_616)))(let ((.def_554 (bvadd (_ bv1 32) |main::local_14@8|)))(let ((.def_556 (= .def_554 |main::local_14@9|)))(let ((.def_618 (and .def_556 .def_617)))(let ((.def_599 (bvslt |main::local_14@9| (_ bv6 32))))(let ((.def_601 (not .def_599)))(let ((.def_619 (and .def_601 .def_618)))(let ((.def_560 (= |main::local_14@9| (_ bv6 32))))(let ((.def_620 (and .def_560 .def_619))).def_620)))))))))))))))))))))))))))))))))))))